
(set-logic LIA)
(synth-fun int_bvor_1 ((s Int) (t Int)) Int
(
  (I Int) (Ic Int) (B Bool)
)
(
  (I Int  (
       Ic
       
       
       (ite B I I)
    )
  )
  (Ic Int (
  s
  t
    0
1
  )
)
  (B Bool (
       (= I I)
       
       
     )
  )
)
)
(constraint (= (int_bvor_1 0 0) 0))
(constraint (= (int_bvor_1 0 1) 1))
(constraint (= (int_bvor_1 1 0) 1))
(constraint (= (int_bvor_1 1 1) 1))
(check-synth)
